c Random generated cnf formula, satisfiable: true
p cnf 10 50
-4 6 -8 0
5 -7 1 0
8 10 -4 0
-4 1 7 0
9 -7 -5 0
-8 -7 -5 0
5 4 -1 0
4 -9 -1 0
-3 -4 1 0
2 10 9 0
-3 9 1 0
9 3 -5 0
4 1 9 0
10 3 -2 0
-10 5 4 0
1 9 2 0
2 6 8 0
-4 8 1 0
2 3 9 0
-7 3 -2 0
-1 10 -8 0
9 -2 10 0
6 4 10 0
-8 5 -2 0
-8 5 2 0
10 -9 -6 0
10 -7 9 0
-8 9 -7 0
9 -5 8 0
-6 -8 3 0
4 5 -2 0
5 6 8 0
9 -2 -4 0
-10 -9 1 0
-9 -4 -5 0
10 -3 -6 0
1 4 8 0
-6 3 -1 0
-10 -6 4 0
7 -1 2 0
3 6 -10 0
5 7 -6 0
5 -1 2 0
-7 2 10 0
-5 -6 -10 0
-3 -9 1 0
2 8 3 0
8 -9 -2 0
-6 1 7 0
-10 6 8 0
